c --- [ banner ] -------------------------------------------------------------
c 
c CaDiCaL Radically Simplified CDCL SAT Solver
c Copyright (c) 2016-2021 A. Biere, M. Fleury, N. Froleyks
c 
c Version 1.5.2 9c38a080b32c28d805e8e6ca21849856b0cda605
c g++ (Ubuntu 7.5.0-3ubuntu1~18.04) 7.5.0 -Wall -Wextra -O3 -DNDEBUG
c Wed Feb 16 23:15:36 EST 2022 Linux fac-vanhoeve01 5.4.0-99-generic x86_64
c 
c --- [ limit ] --------------------------------------------------------------
c 
c setting time limit to 600 seconds real time (due to '-t 600')
c setting conflict limit to 1000000000 conflicts (due to '1000000000')
c 
c --- [ parsing input ] ------------------------------------------------------
c 
c reading DIMACS file from 'ddfwcnfs/r1000.5.col_234.cnf'
c opening file to read 'ddfwcnfs/r1000.5.col_234.cnf'
c found 'p cnf 234000 35431408' header
c parsed 35431408 clauses in 25.98 seconds process time
c closing file 'ddfwcnfs/r1000.5.col_234.cnf'
c after reading 604318885 bytes 576.3 MB
c 
c --- [ options ] ------------------------------------------------------------
c 
c all options are set to their default value
c 
c --- [ solving ] ------------------------------------------------------------
c 
c time measured in process time since initialization
c 
c  seconds    reductions  redundant   irredundant
c          MB     restarts       trail         variables
c            level   conflicts       glue            remaining
c 
c * 25.98 2880  0 0   0    0    0  0% 0 35300715 178751 76%
c { 26.04 2883  0 0   0    0    0  0% 0 35300715 178751 76%
c - 32.85 2888 227 1   0  300  218 72% 20 35241337 178751 76%
c } 33.66 2888 116 1   7 1000  747 48% 17 35241337 178751 76%
c [ 33.66 2888  0 1   7 1000  747  0% 0 35241337 178751 76%
c O 33.68 2888 77 1   7 1002  749 34% 2 35241337 178751 76%
c - 56.38 3695 151 2   8 2432 1737 44% 36 35241337 178751 76%
c ] 56.75 3695 167 2   8 3001 2197 46% 47 35241337 178751 76%
c { 56.75 3695 116 2   8 3001 2197 48% 17 35241337 178751 76%
c F 80.82 3697 116 2   8 3003 2199  2% 17 35241337 178751 76%
c p 121.66 3704 115 2 322 5000 3661 16% 27 35241337 178751 76%
c - 151.18 3704 109 3 461 5625 3022 17% 29 35241337 178751 76%
c # 151.99 3704 109 3 530 6004 3348 17% 30 35241337 178751 76%
c } 153.49 3704 104 3 747 7001 4089 17% 32 35241337 178751 76%
c [ 153.49 3704 167 3 747 7001 4089 60% 47 35241337 178751 76%
c - 173.88 3705 152 4 749 9883 4415 39% 55 35241337 178751 76%
c I 173.99 3705 153 4 749 10005 4525 39% 55 35241337 178751 76%
c ] 176.30 3705 278 4 752 15001 8589 26% 45 35241337 178751 76%
c { 176.30 3705 104 4 752 15001 8589 17% 32 35241337 178751 76%
c p 211.29 3705 104 4 753 15001 8599 17% 32 35241337 178751 76%
c 
c  seconds      reductions   redundant    irredundant
c           MB      restarts        trail          variables
c              level    conflicts       glue             remaining
c 
c B 219.53 3705 105 4 753 15009 8606 17% 32 35241337 178751 76%
c - 237.10 3705 106 5 770 15204 5652 17% 32 35241337 178751 76%
c s 253.40 3707 106 5 779 15252 5602 17% 33 35241337 178751 76%
c w 304.01 3708 106 5 779 15252 5600 17% 33 35241337 178751 76%
c e 340.05 4041 106 5 779 15252 5592 17% 33 17779453 119109 51%
c s 340.93 4041 106 5 779 15252 5565 17% 33 17779453 119109 51%
c ^ 346.85 4041 106 5 779 15252 5565 17% 33 17779453 119109 51%
c W 375.97 3508 92 5 1493 21010 9489 22% 34 17779453 119109 51%
c - 384.54 3509 91 6 1561 21589 6371 23% 34 17779453 119109 51%
c F 386.94 3509 91 6 1971 28011 11179 22% 33 17779453 119109 51%
c - 393.85 3509 90 7 2025 28414 7075 22% 33 17779453 119109 51%
c p 408.05 3509 87 7 2314 30001 7968 21% 33 17779453 119109 51%
c } 412.13 3509 84 7 2386 31002 8394 21% 33 17779453 119109 51%
c [ 412.13 3509 278 7 2386 31002 8394 38% 45 17779453 119109 51%
c B 413.34 3509 197 7 2389 36013 10919 30% 43 17779453 119109 51%
c - 420.70 3508 205 8 2389 36215 6016 30% 43 17779453 119109 51%
c s 425.33 3508 254 8 2393 44142 12152 35% 61 17779453 119109 51%
c w 445.04 3508 254 8 2393 44142 12148 35% 61 17779453 119109 51%
c s 452.96 3508 254 8 2393 44142 12136 35% 61 17779453 119109 51%
c ^ 457.28 3508 254 8 2393 44142 12136 35% 61 17779453 119109 51%
c 
c  seconds      reductions    redundant    irredundant
c           MB      restarts         trail          variables
c              level     conflicts       glue             remaining
c 
c - 465.39 3514 256 9 2393 44991 8917 36% 64 17779453 119109 51%
c W 487.57 3514 257 9 2393 45017 8942 36% 65 17779453 119109 51%
c p 503.74 3514 270 9 2394 50004 13061 40% 72 17779453 119109 51%
c - 516.08 3513 248 10 2395 54741 10020 39% 76 17779453 119109 51%
c O 516.16 3513 247 10 2395 55019 10205 39% 76 17779453 119109 51%
c ] 518.60 3513 222 10 2401 63006 16203 39% 75 17779453 119109 51%
c { 518.60 3513 84 10 2401 63006 16203 21% 33 17779453 119109 51%
c - 527.06 3511 85 11 2479 65465 11313 22% 33 17779453 119109 51%
c B 527.20 3511 85 11 2479 66021 11800 22% 33 17779453 119109 51%
c p 549.88 3511 88 11 3357 75004 17968 22% 32 17779453 119109 51%
c - 564.45 3510 88 12 3587 77166 11784 22% 32 17779453 119109 51%
c W 584.94 3510 87 12 3808 78023 12211 22% 33 17779453 119109 51%
c s 593.30 3510 85 12 5051 87473 18729 22% 33 17779453 119109 51%
c } 616.67 3510 85 12 5051 87473 18729 22% 33 17779453 119109 51%
c ? 616.67 3510 85 12 5051 87473 18729 22% 33 17779453 119109 51%
c 
c --- [ result ] -------------------------------------------------------------
c 
c UNKNOWN
c 
c --- [ run-time profiling ] -------------------------------------------------
c 
c process time taken by individual solving procedures
c (percentage relative to process time for solving)
c 
c       315.47   53.41% search
c       275.21   46.59% simplify
c       172.76   29.25% unstable
c        88.55   14.99% stable
c        69.54   11.77% ternary
c        65.96   11.17% vivify
c        54.10    9.16% walk
c        41.83    7.08% elim
c        25.98    4.40% parse
c        18.58    3.15% subsume
c         6.12    1.04% probe
c         0.06    0.01% lucky
c   =================================
c       590.68   95.79% solve
c 
c last line shows process time for solving
c (percentage relative to total process time)
c 
c --- [ statistics ] ---------------------------------------------------------
c 
c chronological:             23155        26.47 %  of conflicts
c conflicts:                 87473       148.09    per second
c decisions:                343270       581.14    per second
c eliminated:                59642        25.49 %  of all variables
c fixed:                     55249        23.61 %  of all variables
c learned:                   86283        98.64 %  per conflict
c learned_lits:           16739454       100.00 %  learned literals
c minimized:                     0         0.00 %  learned literals
c shrunken:                8050546        48.09 %  learned literals
c minishrunken:             459913         2.75 %  learned literals
c propagations:          151107455         0.26 M  per second
c reduced:                   43933        50.22 %  per conflict
c rephased:                     12      7289.42    interval
c restarts:                   5051        17.32    interval
c stabilizing:                   3        48.02 %  of conflicts
c subsumed:                  23609         0.03 %  of all clauses
c strengthened:               5664         0.01 %  of all clauses
c vivified:                     13         0.00 %  of all clauses
c walked:                        3     29157.67    interval
c weakened:               17462469         2.00    average size
c 
c seconds are measured in process time for solving
c 
c --- [ resources ] ----------------------------------------------------------
c 
c total process time since initialization:       616.67    seconds
c total real time since initialization:          616.77    seconds
c maximum resident set size of process:         4782.40    MB
c 
c --- [ shutting down ] ------------------------------------------------------
c 
c exit 0
